p cnf 1003 1612
59 72 155 201 202 0
59 72 155 201 -202 0
59 72 155 -201 202 0
59 72 155 -201 -202 0
-72 96 185 203 204 0
-72 96 185 203 -204 0
-72 96 185 -203 204 0
-72 96 185 -203 -204 0
59 -96 155 205 206 0
59 -96 155 205 -206 0
59 -96 155 -205 206 0
59 -96 155 -205 -206 0
57 58 -59 207 208 0
57 58 -59 207 -208 0
57 58 -59 -207 208 0
57 58 -59 -207 -208 0
-57 -59 185 209 210 0
-57 -59 185 209 -210 0
-57 -59 185 -209 210 0
-57 -59 185 -209 -210 0
28 -58 185 211 212 0
28 -58 185 211 -212 0
28 -58 185 -211 212 0
28 -58 185 -211 -212 0
28 76 140 213 214 0
28 76 140 213 -214 0
28 76 140 -213 214 0
28 76 140 -213 -214 0
-76 106 140 215 216 0
-76 106 140 215 -216 0
-76 106 140 -215 216 0
-76 106 140 -215 -216 0
-76 -106 -185 217 218 0
-76 -106 -185 217 -218 0
-76 -106 -185 -217 218 0
-76 -106 -185 -217 -218 0
24 81 175 219 220 0
24 81 175 219 -220 0
24 81 175 -219 220 0
24 81 175 -219 -220 0
44 81 -175 221 222 0
44 81 -175 221 -222 0
44 81 -175 -221 222 0
44 81 -175 -221 -222 0
-19 44 81 223 224 0
-19 44 81 223 -224 0
-19 44 81 -223 224 0
-19 44 81 -223 -224 0
24 28 -81 225 226 0
24 28 -81 225 -226 0
24 28 -81 -225 226 0
24 28 -81 -225 -226 0
-24 51 158 227 228 0
-24 51 158 227 -228 0
-24 51 158 -227 228 0
-24 51 158 -227 -228 0
-51 137 158 229 230 0
-51 137 158 229 -230 0
-51 137 158 -229 230 0
-51 137 158 -229 -230 0
-24 137 -158 231 232 0
-24 137 -158 231 -232 0
-24 137 -158 -231 232 0
-24 137 -158 -231 -232 0
44 63 -137 233 234 0
44 63 -137 233 -234 0
44 63 -137 -233 234 0
44 63 -137 -233 -234 0
-24 -63 -137 235 236 0
-24 -63 -137 235 -236 0
-24 -63 -137 -235 236 0
-24 -63 -137 -235 -236 0
-44 58 -140 237 238 0
-44 58 -140 237 -238 0
-44 58 -140 -237 238 0
-44 58 -140 -237 -238 0
-44 -58 -185 239 240 0
-44 -58 -185 239 -240 0
-44 -58 -185 -239 240 0
-44 -58 -185 -239 -240 0
-44 -169 -185 241 242 0
-44 -169 -185 241 -242 0
-44 -169 -185 -241 242 0
-44 -169 -185 -241 -242 0
-28 140 155 243 244 0
-28 140 155 243 -244 0
-28 140 155 -243 244 0
-28 140 155 -243 -244 0
73 -140 173 245 246 0
73 -140 173 245 -246 0
73 -140 173 -245 246 0
73 -140 173 -245 -246 0
-28 -73 173 247 248 0
-28 -73 173 247 -248 0
-28 -73 173 -247 248 0
-28 -73 173 -247 -248 0
-28 137 167 249 250 0
-28 137 167 249 -250 0
-28 137 167 -249 250 0
-28 137 167 -249 -250 0
-137 167 -173 251 252 0
-137 167 -173 251 -252 0
-137 167 -173 -251 252 0
-137 167 -173 -251 -252 0
-140 -167 -173 253 254 0
-140 -167 -173 253 -254 0
-140 -167 -173 -253 254 0
-140 -167 -173 -253 -254 0
9 49 -155 255 256 0
9 49 -155 255 -256 0
9 49 -155 -255 256 0
9 49 -155 -255 -256 0
9 -49 90 257 258 0
9 -49 90 257 -258 0
9 -49 90 -257 258 0
9 -49 90 -257 -258 0
-49 -90 192 259 260 0
-49 -90 192 259 -260 0
-49 -90 192 -259 260 0
-49 -90 192 -259 -260 0
-9 107 192 261 262 0
-9 107 192 261 -262 0
-9 107 192 -261 262 0
-9 107 192 -261 -262 0
106 -107 144 263 264 0
106 -107 144 263 -264 0
106 -107 144 -263 264 0
106 -107 144 -263 -264 0
34 132 -144 265 266 0
34 132 -144 265 -266 0
34 132 -144 -265 266 0
34 132 -144 -265 -266 0
-107 -132 -144 267 268 0
-107 -132 -144 267 -268 0
-107 -132 -144 -267 268 0
-107 -132 -144 -267 -268 0
34 -35 80 269 270 0
34 -35 80 269 -270 0
34 -35 80 -269 270 0
34 -35 80 -269 -270 0
-35 -80 106 271 272 0
-35 -80 106 271 -272 0
-35 -80 106 -271 272 0
-35 -80 106 -271 -272 0
-9 -34 65 273 274 0
-9 -34 65 273 -274 0
-9 -34 65 -273 274 0
-9 -34 65 -273 -274 0
-34 -61 65 275 276 0
-34 -61 65 275 -276 0
-34 -61 65 -275 276 0
-34 -61 65 -275 -276 0
-34 -65 -107 277 278 0
-34 -65 -107 277 -278 0
-34 -65 -107 -277 278 0
-34 -65 -107 -277 -278 0
-106 169 192 279 280 0
-106 169 192 279 -280 0
-106 169 192 -279 280 0
-106 169 192 -279 -280 0
-9 -106 -169 281 282 0
-9 -106 -169 281 -282 0
-9 -106 -169 -281 282 0
-9 -106 -169 -281 -282 0
3 96 -192 283 284 0
3 96 -192 283 -284 0
3 96 -192 -283 284 0
3 96 -192 -283 -284 0
-3 96 -192 285 286 0
-3 96 -192 285 -286 0
-3 96 -192 -285 286 0
-3 96 -192 -285 -286 0
-96 149 -192 287 288 0
-96 149 -192 287 -288 0
-96 149 -192 -287 288 0
-96 149 -192 -287 -288 0
45 -149 -155 289 290 0
45 -149 -155 289 -290 0
45 -149 -155 -289 290 0
45 -149 -155 -289 -290 0
-45 -149 194 291 292 0
-45 -149 194 291 -292 0
-45 -149 194 -291 292 0
-45 -149 194 -291 -292 0
-96 -155 194 293 294 0
-96 -155 194 293 -294 0
-96 -155 194 -293 294 0
-96 -155 194 -293 -294 0
-45 -149 -194 295 296 0
-45 -149 -194 295 -296 0
-45 -149 -194 -295 296 0
-45 -149 -194 -295 -296 0
-133 150 -182 297 298 0
-133 150 -182 297 -298 0
-133 150 -182 -297 298 0
-133 150 -182 -297 -298 0
79 142 187 299 300 0
79 142 187 299 -300 0
79 142 187 -299 300 0
79 142 187 -299 -300 0
40 -142 174 301 302 0
40 -142 174 301 -302 0
40 -142 174 -301 302 0
40 -142 174 -301 -302 0
-126 174 -187 303 304 0
-126 174 -187 303 -304 0
-126 174 -187 -303 304 0
-126 174 -187 -303 -304 0
34 79 -174 305 306 0
34 79 -174 305 -306 0
34 79 -174 -305 306 0
34 79 -174 -305 -306 0
-42 79 -174 307 308 0
-42 79 -174 307 -308 0
-42 79 -174 -307 308 0
-42 79 -174 -307 -308 0
68 -79 145 309 310 0
68 -79 145 309 -310 0
68 -79 145 -309 310 0
68 -79 145 -309 -310 0
88 182 193 311 312 0
88 182 193 311 -312 0
88 182 193 -311 312 0
88 182 193 -311 -312 0
-79 -88 193 313 314 0
-79 -88 193 313 -314 0
-79 -88 193 -313 314 0
-79 -88 193 -313 -314 0
40 -68 145 315 316 0
40 -68 145 315 -316 0
40 -68 145 -315 316 0
40 -68 145 -315 -316 0
40 -68 -193 317 318 0
40 -68 -193 317 -318 0
40 -68 -193 -317 318 0
40 -68 -193 -317 -318 0
10 98 160 319 320 0
10 98 160 319 -320 0
10 98 160 -319 320 0
10 98 160 -319 -320 0
10 -98 -145 321 322 0
10 -98 -145 321 -322 0
10 -98 -145 -321 322 0
10 -98 -145 -321 -322 0
-10 -42 -145 323 324 0
-10 -42 -145 323 -324 0
-10 -42 -145 -323 324 0
-10 -42 -145 -323 -324 0
92 -126 -145 325 326 0
92 -126 -145 325 -326 0
92 -126 -145 -325 326 0
92 -126 -145 -325 -326 0
-92 128 -160 327 328 0
-92 128 -160 327 -328 0
-92 128 -160 -327 328 0
-92 128 -160 -327 -328 0
-92 -126 -128 329 330 0
-92 -126 -128 329 -330 0
-92 -126 -128 -329 330 0
-92 -126 -128 -329 -330 0
-13 84 -176 331 332 0
-13 84 -176 331 -332 0
-13 84 -176 -331 332 0
-13 84 -176 -331 -332 0
-13 20 -84 333 334 0
-13 20 -84 333 -334 0
-13 20 -84 -333 334 0
-13 20 -84 -333 -334 0
-20 61 171 335 336 0
-20 61 171 335 -336 0
-20 61 171 -335 336 0
-20 61 171 -335 -336 0
61 -84 -171 337 338 0
61 -84 -171 337 -338 0
61 -84 -171 -337 338 0
61 -84 -171 -337 -338 0
-20 61 87 339 340 0
-20 61 87 339 -340 0
-20 61 87 -339 340 0
-20 61 87 -339 -340 0
-20 30 87 341 342 0
-20 30 87 341 -342 0
-20 30 87 -341 342 0
-20 30 87 -341 -342 0
-30 -61 87 343 344 0
-30 -61 87 343 -344 0
-30 -61 87 -343 344 0
-30 -61 87 -343 -344 0
59 -109 145 345 346 0
59 -109 145 345 -346 0
59 -109 145 -345 346 0
59 -109 145 -345 -346 0
93 163 -177 347 348 0
93 163 -177 347 -348 0
93 163 -177 -347 348 0
93 163 -177 -347 -348 0
-93 113 -177 349 350 0
-93 113 -177 349 -350 0
-93 113 -177 -349 350 0
-93 113 -177 -349 -350 0
141 168 181 351 352 0
141 168 181 351 -352 0
141 168 181 -351 352 0
141 168 181 -351 -352 0
168 175 181 353 354 0
168 175 181 353 -354 0
168 175 181 -353 354 0
168 175 181 -353 -354 0
-168 175 181 355 356 0
-168 175 181 355 -356 0
-168 175 181 -355 356 0
-168 175 181 -355 -356 0
-57 71 -175 357 358 0
-57 71 -175 357 -358 0
-57 71 -175 -357 358 0
-57 71 -175 -357 -358 0
-40 -71 -175 359 360 0
-40 -71 -175 359 -360 0
-40 -71 -175 -359 360 0
-40 -71 -175 -359 -360 0
39 116 -123 361 362 0
39 116 -123 361 -362 0
39 116 -123 -361 362 0
39 116 -123 -361 -362 0
1 104 -152 363 364 0
1 104 -152 363 -364 0
1 104 -152 -363 364 0
1 104 -152 -363 -364 0
1 -104 151 365 366 0
1 -104 151 365 -366 0
1 -104 151 -365 366 0
1 -104 151 -365 -366 0
41 -135 154 367 368 0
41 -135 154 367 -368 0
41 -135 154 -367 368 0
41 -135 154 -367 -368 0
41 176 196 369 370 0
41 176 196 369 -370 0
41 176 196 -369 370 0
41 176 196 -369 -370 0
41 -135 -176 371 372 0
41 -135 -176 371 -372 0
41 -135 -176 -371 372 0
41 -135 -176 -371 -372 0
102 156 157 373 374 0
102 156 157 373 -374 0
102 156 157 -373 374 0
102 156 157 -373 -374 0
22 102 -157 375 376 0
22 102 -157 375 -376 0
22 102 -157 -375 376 0
22 102 -157 -375 -376 0
-102 156 187 377 378 0
-102 156 187 377 -378 0
-102 156 187 -377 378 0
-102 156 187 -377 -378 0
12 22 -102 379 380 0
12 22 -102 379 -380 0
12 22 -102 -379 380 0
12 22 -102 -379 -380 0
-12 -102 156 381 382 0
-12 -102 156 381 -382 0
-12 -102 156 -381 382 0
-12 -102 156 -381 -382 0
21 -159 200 383 384 0
21 -159 200 383 -384 0
21 -159 200 -383 384 0
21 -159 200 -383 -384 0
-98 -159 200 385 386 0
-98 -159 200 385 -386 0
-98 -159 200 -385 386 0
-98 -159 200 -385 -386 0
21 146 -200 387 388 0
21 146 -200 387 -388 0
21 146 -200 -387 388 0
21 146 -200 -387 -388 0
21 -146 -200 389 390 0
21 -146 -200 389 -390 0
21 -146 -200 -389 390 0
21 -146 -200 -389 -390 0
-21 43 -159 391 392 0
-21 43 -159 391 -392 0
-21 43 -159 -391 392 0
-21 43 -159 -391 -392 0
19 -43 127 393 394 0
19 -43 127 393 -394 0
19 -43 127 -393 394 0
19 -43 127 -393 -394 0
-21 -43 -127 395 396 0
-21 -43 -127 395 -396 0
-21 -43 -127 -395 396 0
-21 -43 -127 -395 -396 0
142 163 193 397 398 0
142 163 193 397 -398 0
142 163 193 -397 398 0
142 163 193 -397 -398 0
86 95 190 399 400 0
86 95 190 399 -400 0
86 95 190 -399 400 0
86 95 190 -399 -400 0
36 95 154 401 402 0
36 95 154 401 -402 0
36 95 154 -401 402 0
36 95 154 -401 -402 0
36 86 -154 403 404 0
36 86 -154 403 -404 0
36 86 -154 -403 404 0
36 86 -154 -403 -404 0
-61 -121 188 405 406 0
-61 -121 188 405 -406 0
-61 -121 188 -405 406 0
-61 -121 188 -405 -406 0
-33 -55 94 407 408 0
-33 -55 94 407 -408 0
-33 -55 94 -407 408 0
-33 -55 94 -407 -408 0
3 -173 186 409 410 0
3 -173 186 409 -410 0
3 -173 186 -409 410 0
3 -173 186 -409 -410 0
-3 -178 186 411 412 0
-3 -178 186 411 -412 0
-3 -178 186 -411 412 0
-3 -178 186 -411 -412 0
25 29 129 413 414 0
25 29 129 413 -414 0
25 29 129 -413 414 0
25 29 129 -413 -414 0
29 62 -129 415 416 0
29 62 -129 415 -416 0
29 62 -129 -415 416 0
29 62 -129 -415 -416 0
-39 -168 183 417 418 0
-39 -168 183 417 -418 0
-39 -168 183 -417 418 0
-39 -168 183 -417 -418 0
67 -144 182 419 420 0
67 -144 182 419 -420 0
67 -144 182 -419 420 0
67 -144 182 -419 -420 0
49 111 188 421 422 0
49 111 188 421 -422 0
49 111 188 -421 422 0
49 111 188 -421 -422 0
19 95 99 423 424 0
19 95 99 423 -424 0
19 95 99 -423 424 0
19 95 99 -423 -424 0
50 134 197 425 426 0
50 134 197 425 -426 0
50 134 197 -425 426 0
50 134 197 -425 -426 0
127 134 -178 427 428 0
127 134 -178 427 -428 0
127 134 -178 -427 428 0
127 134 -178 -427 -428 0
-85 -133 -147 429 430 0
-85 -133 -147 429 -430 0
-85 -133 -147 -429 430 0
-85 -133 -147 -429 -430 0
-30 62 -170 431 432 0
-30 62 -170 431 -432 0
-30 62 -170 -431 432 0
-30 62 -170 -431 -432 0
35 67 187 433 434 0
35 67 187 433 -434 0
35 67 187 -433 434 0
35 67 187 -433 -434 0
51 67 -184 435 436 0
51 67 -184 435 -436 0
51 67 -184 -435 436 0
51 67 -184 -435 -436 0
35 -51 -187 437 438 0
35 -51 -187 437 -438 0
35 -51 -187 -437 438 0
35 -51 -187 -437 -438 0
-51 -101 -184 439 440 0
-51 -101 -184 439 -440 0
-51 -101 -184 -439 440 0
-51 -101 -184 -439 -440 0
-54 73 107 441 442 0
-54 73 107 441 -442 0
-54 73 107 -441 442 0
-54 73 107 -441 -442 0
-53 -141 150 443 444 0
-53 -141 150 443 -444 0
-53 -141 150 -443 444 0
-53 -141 150 -443 -444 0
-56 -69 130 445 446 0
-56 -69 130 445 -446 0
-56 -69 130 -445 446 0
-56 -69 130 -445 -446 0
-56 -69 -130 447 448 0
-56 -69 -130 447 -448 0
-56 -69 -130 -447 448 0
-56 -69 -130 -447 -448 0
2 -7 100 449 450 0
2 -7 100 449 -450 0
2 -7 100 -449 450 0
2 -7 100 -449 -450 0
-7 100 148 451 452 0
-7 100 148 451 -452 0
-7 100 148 -451 452 0
-7 100 148 -451 -452 0
-100 148 153 453 454 0
-100 148 153 453 -454 0
-100 148 153 -453 454 0
-100 148 153 -453 -454 0
-148 153 -186 455 456 0
-148 153 -186 455 -456 0
-148 153 -186 -455 456 0
-148 153 -186 -455 -456 0
20 22 -154 457 458 0
20 22 -154 457 -458 0
20 22 -154 -457 458 0
20 22 -154 -457 -458 0
-22 -154 -186 459 460 0
-22 -154 -186 459 -460 0
-22 -154 -186 -459 460 0
-22 -154 -186 -459 -460 0
-71 148 -163 461 462 0
-71 148 -163 461 -462 0
-71 148 -163 -461 462 0
-71 148 -163 -461 -462 0
-71 -148 -163 463 464 0
-71 -148 -163 463 -464 0
-71 -148 -163 -463 464 0
-71 -148 -163 -463 -464 0
23 74 -118 465 466 0
23 74 -118 465 -466 0
23 74 -118 -465 466 0
23 74 -118 -465 -466 0
74 -118 -150 467 468 0
74 -118 -150 467 -468 0
74 -118 -150 -467 468 0
74 -118 -150 -467 -468 0
1 -64 -190 469 470 0
1 -64 -190 469 -470 0
1 -64 -190 -469 470 0
1 -64 -190 -469 -470 0
-1 113 -190 471 472 0
-1 113 -190 471 -472 0
-1 113 -190 -471 472 0
-1 113 -190 -471 -472 0
31 -64 -113 473 474 0
31 -64 -113 473 -474 0
31 -64 -113 -473 474 0
31 -64 -113 -473 -474 0
-1 -31 -113 475 476 0
-1 -31 -113 475 -476 0
-1 -31 -113 -475 476 0
-1 -31 -113 -475 -476 0
-1 -64 -67 477 478 0
-1 -64 -67 477 -478 0
-1 -64 -67 -477 478 0
-1 -64 -67 -477 -478 0
23 149 -170 479 480 0
23 149 -170 479 -480 0
23 149 -170 -479 480 0
23 149 -170 -479 -480 0
-8 -46 91 481 482 0
-8 -46 91 481 -482 0
-8 -46 91 -481 482 0
-8 -46 91 -481 -482 0
27 85 136 483 484 0
27 85 136 483 -484 0
27 85 136 -483 484 0
27 85 136 -483 -484 0
-49 -85 114 485 486 0
-49 -85 114 485 -486 0
-49 -85 114 -485 486 0
-49 -85 114 -485 -486 0
-85 -114 136 487 488 0
-85 -114 136 487 -488 0
-85 -114 136 -487 488 0
-85 -114 136 -487 -488 0
-53 74 -162 489 490 0
-53 74 -162 489 -490 0
-53 74 -162 -489 490 0
-53 74 -162 -489 -490 0
9 -25 -164 491 492 0
9 -25 -164 491 -492 0
9 -25 -164 -491 492 0
9 -25 -164 -491 -492 0
-68 90 104 493 494 0
-68 90 104 493 -494 0
-68 90 104 -493 494 0
-68 90 104 -493 -494 0
143 -151 -182 495 496 0
143 -151 -182 495 -496 0
143 -151 -182 -495 496 0
143 -151 -182 -495 -496 0
-143 -151 -182 497 498 0
-143 -151 -182 497 -498 0
-143 -151 -182 -497 498 0
-143 -151 -182 -497 -498 0
-5 -164 196 499 500 0
-5 -164 196 499 -500 0
-5 -164 196 -499 500 0
-5 -164 196 -499 -500 0
7 -17 42 501 502 0
7 -17 42 501 -502 0
7 -17 42 -501 502 0
7 -17 42 -501 -502 0
-17 -42 128 503 504 0
-17 -42 128 503 -504 0
-17 -42 128 -503 504 0
-17 -42 128 -503 -504 0
48 -141 166 505 506 0
48 -141 166 505 -506 0
48 -141 166 -505 506 0
48 -141 166 -505 -506 0
-47 48 -166 507 508 0
-47 48 -166 507 -508 0
-47 48 -166 -507 508 0
-47 48 -166 -507 -508 0
-33 -40 160 509 510 0
-33 -40 160 509 -510 0
-33 -40 160 -509 510 0
-33 -40 160 -509 -510 0
-33 -40 -65 511 512 0
-33 -40 -65 511 -512 0
-33 -40 -65 -511 512 0
-33 -40 -65 -511 -512 0
48 -74 -132 513 514 0
48 -74 -132 513 -514 0
48 -74 -132 -513 514 0
48 -74 -132 -513 -514 0
151 167 174 515 516 0
151 167 174 515 -516 0
151 167 174 -515 516 0
151 167 174 -515 -516 0
-119 165 179 517 518 0
-119 165 179 517 -518 0
-119 165 179 -517 518 0
-119 165 179 -517 -518 0
-119 -129 179 519 520 0
-119 -129 179 519 -520 0
-119 -129 179 -519 520 0
-119 -129 179 -519 -520 0
15 33 -127 521 522 0
15 33 -127 521 -522 0
15 33 -127 -521 522 0
15 33 -127 -521 -522 0
-4 77 -82 523 524 0
-4 77 -82 523 -524 0
-4 77 -82 -523 524 0
-4 77 -82 -523 -524 0
-2 -77 -82 525 526 0
-2 -77 -82 525 -526 0
-2 -77 -82 -525 526 0
-2 -77 -82 -525 -526 0
78 139 196 527 528 0
78 139 196 527 -528 0
78 139 196 -527 528 0
78 139 196 -527 -528 0
139 -147 -196 529 530 0
139 -147 -196 529 -530 0
139 -147 -196 -529 530 0
139 -147 -196 -529 -530 0
-11 -78 139 531 532 0
-11 -78 139 531 -532 0
-11 -78 139 -531 532 0
-11 -78 139 -531 -532 0
99 129 158 533 534 0
99 129 158 533 -534 0
99 129 158 -533 534 0
99 129 158 -533 -534 0
99 -134 -158 535 536 0
99 -134 -158 535 -536 0
99 -134 -158 -535 536 0
99 -134 -158 -535 -536 0
-99 129 -134 537 538 0
-99 129 -134 537 -538 0
-99 129 -134 -537 538 0
-99 129 -134 -537 -538 0
118 180 183 539 540 0
118 180 183 539 -540 0
118 180 183 -539 540 0
118 180 183 -539 -540 0
-26 118 -180 541 542 0
-26 118 -180 541 -542 0
-26 118 -180 -541 542 0
-26 118 -180 -541 -542 0
72 -118 183 543 544 0
72 -118 183 543 -544 0
72 -118 183 -543 544 0
72 -118 183 -543 -544 0
-26 57 -75 545 546 0
-26 57 -75 545 -546 0
-26 57 -75 -545 546 0
-26 57 -75 -545 -546 0
-26 -75 -183 547 548 0
-26 -75 -183 547 -548 0
-26 -75 -183 -547 548 0
-26 -75 -183 -547 -548 0
-147 -171 -178 549 550 0
-147 -171 -178 549 -550 0
-147 -171 -178 -549 550 0
-147 -171 -178 -549 -550 0
-39 112 131 551 552 0
-39 112 131 551 -552 0
-39 112 131 -551 552 0
-39 112 131 -551 -552 0
-39 -58 -112 553 554 0
-39 -58 -112 553 -554 0
-39 -58 -112 -553 554 0
-39 -58 -112 -553 -554 0
-11 -67 119 555 556 0
-11 -67 119 555 -556 0
-11 -67 119 -555 556 0
-11 -67 119 -555 -556 0
84 177 198 557 558 0
84 177 198 557 -558 0
84 177 198 -557 558 0
84 177 198 -557 -558 0
-127 -134 184 559 560 0
-127 -134 184 559 -560 0
-127 -134 184 -559 560 0
-127 -134 184 -559 -560 0
108 -133 177 561 562 0
108 -133 177 561 -562 0
108 -133 177 -561 562 0
108 -133 177 -561 -562 0
-101 108 -177 563 564 0
-101 108 -177 563 -564 0
-101 108 -177 -563 564 0
-101 108 -177 -563 -564 0
37 53 86 565 566 0
37 53 86 565 -566 0
37 53 86 -565 566 0
37 53 86 -565 -566 0
120 -183 -197 567 568 0
120 -183 -197 567 -568 0
120 -183 -197 -567 568 0
120 -183 -197 -567 -568 0
56 -94 138 569 570 0
56 -94 138 569 -570 0
56 -94 138 -569 570 0
56 -94 138 -569 -570 0
56 -94 -138 571 572 0
56 -94 -138 571 -572 0
56 -94 -138 -571 572 0
56 -94 -138 -571 -572 0
64 89 -181 573 574 0
64 89 -181 573 -574 0
64 89 -181 -573 574 0
64 89 -181 -573 -574 0
36 64 -89 575 576 0
36 64 -89 575 -576 0
36 64 -89 -575 576 0
36 64 -89 -575 -576 0
-15 49 -195 577 578 0
-15 49 -195 577 -578 0
-15 49 -195 -577 578 0
-15 49 -195 -577 -578 0
-36 -97 182 579 580 0
-36 -97 182 579 -580 0
-36 -97 182 -579 580 0
-36 -97 182 -579 -580 0
-116 -122 195 581 582 0
-116 -122 195 581 -582 0
-116 -122 195 -581 582 0
-116 -122 195 -581 -582 0
20 -110 -172 583 584 0
20 -110 -172 583 -584 0
20 -110 -172 -583 584 0
20 -110 -172 -583 -584 0
7 165 188 585 586 0
7 165 188 585 -586 0
7 165 188 -585 586 0
7 165 188 -585 -586 0
-7 -121 165 587 588 0
-7 -121 165 587 -588 0
-7 -121 165 -587 588 0
-7 -121 165 -587 -588 0
65 105 172 589 590 0
65 105 172 589 -590 0
65 105 172 -589 590 0
65 105 172 -589 -590 0
-160 189 -190 591 592 0
-160 189 -190 591 -592 0
-160 189 -190 -591 592 0
-160 189 -190 -591 -592 0
6 -74 75 593 594 0
6 -74 75 593 -594 0
6 -74 75 -593 594 0
6 -74 75 -593 -594 0
-23 26 -97 595 596 0
-23 26 -97 595 -596 0
-23 26 -97 -595 596 0
-23 26 -97 -595 -596 0
82 -108 154 597 598 0
82 -108 154 597 -598 0
82 -108 154 -597 598 0
82 -108 154 -597 -598 0
16 157 -181 599 600 0
16 157 -181 599 -600 0
16 157 -181 -599 600 0
16 157 -181 -599 -600 0
110 -157 -181 601 602 0
110 -157 -181 601 -602 0
110 -157 -181 -601 602 0
110 -157 -181 -601 -602 0
92 -98 -123 603 604 0
92 -98 -123 603 -604 0
92 -98 -123 -603 604 0
92 -98 -123 -603 -604 0
6 57 -158 605 606 0
6 57 -158 605 -606 0
6 57 -158 -605 606 0
6 57 -158 -605 -606 0
6 -57 -74 607 608 0
6 -57 -74 607 -608 0
6 -57 -74 -607 608 0
6 -57 -74 -607 -608 0
151 189 -193 609 610 0
151 189 -193 609 -610 0
151 189 -193 -609 610 0
151 189 -193 -609 -610 0
30 189 -193 611 612 0
30 189 -193 611 -612 0
30 189 -193 -611 612 0
30 189 -193 -611 -612 0
69 -101 128 613 614 0
69 -101 128 613 -614 0
69 -101 128 -613 614 0
69 -101 128 -613 -614 0
52 -124 -148 615 616 0
52 -124 -148 615 -616 0
52 -124 -148 -615 616 0
52 -124 -148 -615 -616 0
-121 131 -174 617 618 0
-121 131 -174 617 -618 0
-121 131 -174 -617 618 0
-121 131 -174 -617 -618 0
13 85 111 619 620 0
13 85 111 619 -620 0
13 85 111 -619 620 0
13 85 111 -619 -620 0
31 90 150 621 622 0
31 90 150 621 -622 0
31 90 150 -621 622 0
31 90 150 -621 -622 0
-13 31 -150 623 624 0
-13 31 -150 623 -624 0
-13 31 -150 -623 624 0
-13 31 -150 -623 -624 0
-21 -162 191 625 626 0
-21 -162 191 625 -626 0
-21 -162 191 -625 626 0
-21 -162 191 -625 -626 0
52 -56 77 627 628 0
52 -56 77 627 -628 0
52 -56 77 -627 628 0
52 -56 77 -627 -628 0
-5 83 125 629 630 0
-5 83 125 629 -630 0
-5 83 125 -629 630 0
-5 83 125 -629 -630 0
-167 170 -194 631 632 0
-167 170 -194 631 -632 0
-167 170 -194 -631 632 0
-167 170 -194 -631 -632 0
77 -167 -194 633 634 0
77 -167 -194 633 -634 0
77 -167 -194 -633 634 0
77 -167 -194 -633 -634 0
98 110 198 635 636 0
98 110 198 635 -636 0
98 110 198 -635 636 0
98 110 198 -635 -636 0
-2 -17 -19 637 638 0
-2 -17 -19 637 -638 0
-2 -17 -19 -637 638 0
-2 -17 -19 -637 -638 0
-31 -41 -136 639 640 0
-31 -41 -136 639 -640 0
-31 -41 -136 -639 640 0
-31 -41 -136 -639 -640 0
-4 16 146 641 642 0
-4 16 146 641 -642 0
-4 16 146 -641 642 0
-4 16 146 -641 -642 0
-113 135 -146 643 644 0
-113 135 -146 643 -644 0
-113 135 -146 -643 644 0
-113 135 -146 -643 -644 0
75 -99 159 645 646 0
75 -99 159 645 -646 0
75 -99 159 -645 646 0
75 -99 159 -645 -646 0
80 -168 190 647 648 0
80 -168 190 647 -648 0
80 -168 190 -647 648 0
80 -168 190 -647 -648 0
7 -108 115 649 650 0
7 -108 115 649 -650 0
7 -108 115 -649 650 0
7 -108 115 -649 -650 0
78 144 -198 651 652 0
78 144 -198 651 -652 0
78 144 -198 -651 652 0
78 144 -198 -651 -652 0
78 -170 -198 653 654 0
78 -170 -198 653 -654 0
78 -170 -198 -653 654 0
78 -170 -198 -653 -654 0
-78 -84 -198 655 656 0
-78 -84 -198 655 -656 0
-78 -84 -198 -655 656 0
-78 -84 -198 -655 -656 0
2 -53 199 657 658 0
2 -53 199 657 -658 0
2 -53 199 -657 658 0
2 -53 199 -657 -658 0
58 -65 149 659 660 0
58 -65 149 659 -660 0
58 -65 149 -659 660 0
58 -65 149 -659 -660 0
15 76 105 661 662 0
15 76 105 661 -662 0
15 76 105 -661 662 0
15 76 105 -661 -662 0
104 120 -164 663 664 0
104 120 -164 663 -664 0
104 120 -164 -663 664 0
104 120 -164 -663 -664 0
43 51 -115 665 666 0
43 51 -115 665 -666 0
43 51 -115 -665 666 0
43 51 -115 -665 -666 0
-111 142 -195 667 668 0
-111 142 -195 667 -668 0
-111 142 -195 -667 668 0
-111 142 -195 -667 -668 0
-48 -97 -189 669 670 0
-48 -97 -189 669 -670 0
-48 -97 -189 -669 670 0
-48 -97 -189 -669 -670 0
-59 124 141 671 672 0
-59 124 141 671 -672 0
-59 124 141 -671 672 0
-59 124 141 -671 -672 0
-6 25 -55 673 674 0
-6 25 -55 673 -674 0
-6 25 -55 -673 674 0
-6 25 -55 -673 -674 0
27 -197 200 675 676 0
27 -197 200 675 -676 0
27 -197 200 -675 676 0
27 -197 200 -675 -676 0
27 138 179 677 678 0
27 138 179 677 -678 0
27 138 179 -677 678 0
27 138 179 -677 -678 0
-138 -197 -200 679 680 0
-138 -197 -200 679 -680 0
-138 -197 -200 -679 680 0
-138 -197 -200 -679 -680 0
63 83 -156 681 682 0
63 83 -156 681 -682 0
63 83 -156 -681 682 0
63 83 -156 -681 -682 0
37 161 -165 683 684 0
37 161 -165 683 -684 0
37 161 -165 -683 684 0
37 161 -165 -683 -684 0
-8 -161 -165 685 686 0
-8 -161 -165 685 -686 0
-8 -161 -165 -685 686 0
-8 -161 -165 -685 -686 0
-8 -37 127 687 688 0
-8 -37 127 687 -688 0
-8 -37 127 -687 688 0
-8 -37 127 -687 -688 0
-43 -111 169 689 690 0
-43 -111 169 689 -690 0
-43 -111 169 -689 690 0
-43 -111 169 -689 -690 0
15 92 132 691 692 0
15 92 132 691 -692 0
15 92 132 -691 692 0
15 92 132 -691 -692 0
54 -90 198 693 694 0
54 -90 198 693 -694 0
54 -90 198 -693 694 0
54 -90 198 -693 -694 0
54 -79 -90 695 696 0
54 -79 -90 695 -696 0
54 -79 -90 -695 696 0
54 -79 -90 -695 -696 0
-31 110 114 697 698 0
-31 110 114 697 -698 0
-31 110 114 -697 698 0
-31 110 114 -697 -698 0
-119 -176 -189 699 700 0
-119 -176 -189 699 -700 0
-119 -176 -189 -699 700 0
-119 -176 -189 -699 -700 0
30 -41 -104 701 702 0
30 -41 -104 701 -702 0
30 -41 -104 -701 702 0
30 -41 -104 -701 -702 0
26 47 93 703 704 0
26 47 93 703 -704 0
26 47 93 -703 704 0
26 47 93 -703 -704 0
47 -55 -93 705 706 0
47 -55 -93 705 -706 0
47 -55 -93 -705 706 0
47 -55 -93 -705 -706 0
18 -123 162 707 708 0
18 -123 162 707 -708 0
18 -123 162 -707 708 0
18 -123 162 -707 -708 0
-60 122 171 709 710 0
-60 122 171 709 -710 0
-60 122 171 -709 710 0
-60 122 171 -709 -710 0
25 98 131 711 712 0
25 98 131 711 -712 0
25 98 131 -711 712 0
25 98 131 -711 -712 0
-62 -91 191 713 714 0
-62 -91 191 713 -714 0
-62 -91 191 -713 714 0
-62 -91 191 -713 -714 0
-62 -67 -91 715 716 0
-62 -67 -91 715 -716 0
-62 -67 -91 -715 716 0
-62 -67 -91 -715 -716 0
-23 -48 143 717 718 0
-23 -48 143 717 -718 0
-23 -48 143 -717 718 0
-23 -48 143 -717 -718 0
-130 152 164 719 720 0
-130 152 164 719 -720 0
-130 152 164 -719 720 0
-130 152 164 -719 -720 0
62 -152 164 721 722 0
62 -152 164 721 -722 0
62 -152 164 -721 722 0
62 -152 164 -721 -722 0
-99 135 -179 723 724 0
-99 135 -179 723 -724 0
-99 135 -179 -723 724 0
-99 135 -179 -723 -724 0
-10 -72 178 725 726 0
-10 -72 178 725 -726 0
-10 -72 178 -725 726 0
-10 -72 178 -725 -726 0
-54 123 -125 727 728 0
-54 123 -125 727 -728 0
-54 123 -125 -727 728 0
-54 123 -125 -727 -728 0
8 -25 -30 729 730 0
8 -25 -30 729 -730 0
8 -25 -30 -729 730 0
8 -25 -30 -729 -730 0
26 -109 -115 731 732 0
26 -109 -115 731 -732 0
26 -109 -115 -731 732 0
26 -109 -115 -731 -732 0
11 -29 43 733 734 0
11 -29 43 733 -734 0
11 -29 43 -733 734 0
11 -29 43 -733 -734 0
-29 47 -122 735 736 0
-29 47 -122 735 -736 0
-29 47 -122 -735 736 0
-29 47 -122 -735 -736 0
75 -87 93 737 738 0
75 -87 93 737 -738 0
75 -87 93 -737 738 0
75 -87 93 -737 -738 0
-89 -132 -162 739 740 0
-89 -132 -162 739 -740 0
-89 -132 -162 -739 740 0
-89 -132 -162 -739 -740 0
-15 45 162 741 742 0
-15 45 162 741 -742 0
-15 45 162 -741 742 0
-15 45 162 -741 -742 0
38 45 64 743 744 0
38 45 64 743 -744 0
38 45 64 -743 744 0
38 45 64 -743 -744 0
147 -179 -183 745 746 0
147 -179 -183 745 -746 0
147 -179 -183 -745 746 0
147 -179 -183 -745 -746 0
14 -47 -131 747 748 0
14 -47 -131 747 -748 0
14 -47 -131 -747 748 0
14 -47 -131 -747 -748 0
-66 -120 135 749 750 0
-66 -120 135 749 -750 0
-66 -120 135 -749 750 0
-66 -120 135 -749 -750 0
88 103 -125 751 752 0
88 103 -125 751 -752 0
88 103 -125 -751 752 0
88 103 -125 -751 -752 0
42 153 -157 753 754 0
42 153 -157 753 -754 0
42 153 -157 -753 754 0
42 153 -157 -753 -754 0
73 -77 -93 755 756 0
73 -77 -93 755 -756 0
73 -77 -93 -755 756 0
73 -77 -93 -755 -756 0
38 133 147 757 758 0
38 133 147 757 -758 0
38 133 147 -757 758 0
38 133 147 -757 -758 0
-52 -151 160 759 760 0
-52 -151 160 759 -760 0
-52 -151 160 -759 760 0
-52 -151 160 -759 -760 0
-32 -92 136 761 762 0
-32 -92 136 761 -762 0
-32 -92 136 -761 762 0
-32 -92 136 -761 -762 0
94 -108 -199 763 764 0
94 -108 -199 763 -764 0
94 -108 -199 -763 764 0
94 -108 -199 -763 -764 0
-36 -91 194 765 766 0
-36 -91 194 765 -766 0
-36 -91 194 -765 766 0
-36 -91 194 -765 -766 0
-3 -69 -78 767 768 0
-3 -69 -78 767 -768 0
-3 -69 -78 -767 768 0
-3 -69 -78 -767 -768 0
17 -35 161 769 770 0
17 -35 161 769 -770 0
17 -35 161 -769 770 0
17 -35 161 -769 -770 0
39 69 105 771 772 0
39 69 105 771 -772 0
39 69 105 -771 772 0
39 69 105 -771 -772 0
63 82 -180 773 774 0
63 82 -180 773 -774 0
63 82 -180 -773 774 0
63 82 -180 -773 -774 0
68 108 157 775 776 0
68 108 157 775 -776 0
68 108 157 -775 776 0
68 108 157 -775 -776 0
23 72 109 777 778 0
23 72 109 777 -778 0
23 72 109 -777 778 0
23 72 109 -777 -778 0
32 68 199 779 780 0
32 68 199 779 -780 0
32 68 199 -779 780 0
32 68 199 -779 -780 0
13 32 -199 781 782 0
13 32 -199 781 -782 0
13 32 -199 -781 782 0
13 32 -199 -781 -782 0
3 -171 -195 783 784 0
3 -171 -195 783 -784 0
3 -171 -195 -783 784 0
3 -171 -195 -783 -784 0
-18 130 191 785 786 0
-18 130 191 785 -786 0
-18 130 191 -785 786 0
-18 130 191 -785 -786 0
83 184 190 787 788 0
83 184 190 787 -788 0
83 184 190 -787 788 0
83 184 190 -787 -788 0
11 89 124 789 790 0
11 89 124 789 -790 0
11 89 124 -789 790 0
11 89 124 -789 -790 0
-11 84 89 791 792 0
-11 84 89 791 -792 0
-11 84 89 -791 792 0
-11 84 89 -791 -792 0
-37 -83 113 793 794 0
-37 -83 113 793 -794 0
-37 -83 113 -793 794 0
-37 -83 113 -793 -794 0
-37 -83 -135 795 796 0
-37 -83 -135 795 -796 0
-37 -83 -135 -795 796 0
-37 -83 -135 -795 -796 0
-6 100 119 797 798 0
-6 100 119 797 -798 0
-6 100 119 -797 798 0
-6 100 119 -797 -798 0
14 -88 -143 799 800 0
14 -88 -143 799 -800 0
14 -88 -143 -799 800 0
14 -88 -143 -799 -800 0
-6 162 195 801 802 0
-6 162 195 801 -802 0
-6 162 195 -801 802 0
-6 162 195 -801 -802 0
53 -110 117 803 804 0
53 -110 117 803 -804 0
53 -110 117 -803 804 0
53 -110 117 -803 -804 0
-25 88 -104 805 806 0
-25 88 -104 805 -806 0
-25 88 -104 -805 806 0
-25 88 -104 -805 -806 0
46 -62 166 807 808 0
46 -62 166 807 -808 0
46 -62 166 -807 808 0
46 -62 166 -807 -808 0
-60 -130 -165 809 810 0
-60 -130 -165 809 -810 0
-60 -130 -165 -809 810 0
-60 -130 -165 -809 -810 0
-27 133 171 811 812 0
-27 133 171 811 -812 0
-27 133 171 -811 812 0
-27 133 171 -811 -812 0
-48 124 180 813 814 0
-48 124 180 813 -814 0
-48 124 180 -813 814 0
-48 124 180 -813 -814 0
32 39 -80 815 816 0
32 39 -80 815 -816 0
32 39 -80 -815 816 0
32 39 -80 -815 -816 0
186 -188 199 817 818 0
186 -188 199 817 -818 0
186 -188 199 -817 818 0
186 -188 199 -817 -818 0
38 -45 94 819 820 0
38 -45 94 819 -820 0
38 -45 94 -819 820 0
38 -45 94 -819 -820 0
97 103 -152 821 822 0
97 103 -152 821 -822 0
97 103 -152 -821 822 0
97 103 -152 -821 -822 0
66 118 121 823 824 0
66 118 121 823 -824 0
66 118 121 -823 824 0
66 118 121 -823 -824 0
-16 -114 147 825 826 0
-16 -114 147 825 -826 0
-16 -114 147 -825 826 0
-16 -114 147 -825 -826 0
117 -128 195 827 828 0
117 -128 195 827 -828 0
117 -128 195 -827 828 0
117 -128 195 -827 -828 0
71 111 -156 829 830 0
71 111 -156 829 -830 0
71 111 -156 -829 830 0
71 111 -156 -829 -830 0
-36 -83 -180 831 832 0
-36 -83 -180 831 -832 0
-36 -83 -180 -831 832 0
-36 -83 -180 -831 -832 0
42 -111 169 833 834 0
42 -111 169 833 -834 0
42 -111 169 -833 834 0
42 -111 169 -833 -834 0
55 -110 121 835 836 0
55 -110 121 835 -836 0
55 -110 121 -835 836 0
55 -110 121 -835 -836 0
-16 159 163 837 838 0
-16 159 163 837 -838 0
-16 159 163 -837 838 0
-16 159 163 -837 -838 0
12 18 180 839 840 0
12 18 180 839 -840 0
12 18 180 -839 840 0
12 18 180 -839 -840 0
-46 103 -146 841 842 0
-46 103 -146 841 -842 0
-46 103 -146 -841 842 0
-46 103 -146 -841 -842 0
12 107 -109 843 844 0
12 107 -109 843 -844 0
12 107 -109 -843 844 0
12 107 -109 -843 -844 0
24 -86 -120 845 846 0
24 -86 -120 845 -846 0
24 -86 -120 -845 846 0
24 -86 -120 -845 -846 0
-23 -52 -66 847 848 0
-23 -52 -66 847 -848 0
-23 -52 -66 -847 848 0
-23 -52 -66 -847 -848 0
71 82 -117 849 850 0
71 82 -117 849 -850 0
71 82 -117 -849 850 0
71 82 -117 -849 -850 0
13 -70 166 851 852 0
13 -70 166 851 -852 0
13 -70 166 -851 852 0
13 -70 166 -851 -852 0
-128 -161 -179 853 854 0
-128 -161 -179 853 -854 0
-128 -161 -179 -853 854 0
-128 -161 -179 -853 -854 0
-15 -73 -156 855 856 0
-15 -73 -156 855 -856 0
-15 -73 -156 -855 856 0
-15 -73 -156 -855 -856 0
55 -103 -172 857 858 0
55 -103 -172 857 -858 0
55 -103 -172 -857 858 0
55 -103 -172 -857 -858 0
-18 -66 -150 859 860 0
-18 -66 -150 859 -860 0
-18 -66 -150 -859 860 0
-18 -66 -150 -859 -860 0
52 91 109 861 862 0
52 91 109 861 -862 0
52 91 109 -861 862 0
52 91 109 -861 -862 0
-73 -105 -125 863 864 0
-73 -105 -125 863 -864 0
-73 -105 -125 -863 864 0
-73 -105 -125 -863 -864 0
-12 -89 132 865 866 0
-12 -89 132 865 -866 0
-12 -89 132 -865 866 0
-12 -89 132 -865 -866 0
116 -153 172 867 868 0
116 -153 172 867 -868 0
116 -153 172 -867 868 0
116 -153 172 -867 -868 0
76 119 123 869 870 0
76 119 123 869 -870 0
76 119 123 -869 870 0
76 119 123 -869 -870 0
11 18 -88 871 872 0
11 18 -88 871 -872 0
11 18 -88 -871 872 0
11 18 -88 -871 -872 0
37 -120 121 873 874 0
37 -120 121 873 -874 0
37 -120 121 -873 874 0
37 -120 121 -873 -874 0
-52 -115 -139 875 876 0
-52 -115 -139 875 -876 0
-52 -115 -139 -875 876 0
-52 -115 -139 -875 -876 0
2 141 -172 877 878 0
2 141 -172 877 -878 0
2 141 -172 -877 878 0
2 141 -172 -877 -878 0
-47 70 -189 879 880 0
-47 70 -189 879 -880 0
-47 70 -189 -879 880 0
-47 70 -189 -879 -880 0
-16 55 -80 881 882 0
-16 55 -80 881 -882 0
-16 55 -80 -881 882 0
-16 55 -80 -881 -882 0
-27 53 -116 883 884 0
-27 53 -116 883 -884 0
-27 53 -116 -883 884 0
-27 53 -116 -883 -884 0
46 -63 -105 885 886 0
46 -63 -105 885 -886 0
46 -63 -105 -885 886 0
46 -63 -105 -885 -886 0
70 -87 -138 887 888 0
70 -87 -138 887 -888 0
70 -87 -138 -887 888 0
70 -87 -138 -887 -888 0
29 -50 -199 889 890 0
29 -50 -199 889 -890 0
29 -50 -199 -889 890 0
29 -50 -199 -889 -890 0
8 -94 184 891 892 0
8 -94 184 891 -892 0
8 -94 184 -891 892 0
8 -94 184 -891 -892 0
-50 123 138 893 894 0
-50 123 138 893 -894 0
-50 123 138 -893 894 0
-50 123 138 -893 -894 0
125 126 -191 895 896 0
125 126 -191 895 -896 0
125 126 -191 -895 896 0
125 126 -191 -895 -896 0
69 -82 -86 897 898 0
69 -82 -86 897 -898 0
69 -82 -86 -897 898 0
69 -82 -86 -897 -898 0
-12 70 -114 899 900 0
-12 70 -114 899 -900 0
-12 70 -114 -899 900 0
-12 70 -114 -899 -900 0
-14 97 101 901 902 0
-14 97 101 901 -902 0
-14 97 101 -901 902 0
-14 97 101 -901 -902 0
-19 -142 152 903 904 0
-19 -142 152 903 -904 0
-19 -142 152 -903 904 0
-19 -142 152 -903 -904 0
-10 -143 164 905 906 0
-10 -143 164 905 -906 0
-10 -143 164 -905 906 0
-10 -143 164 -905 -906 0
17 -41 -188 907 908 0
17 -41 -188 907 -908 0
17 -41 -188 -907 908 0
17 -41 -188 -907 -908 0
5 91 97 909 910 0
5 91 97 909 -910 0
5 91 97 -909 910 0
5 91 97 -909 -910 0
-60 112 161 911 912 0
-60 112 161 911 -912 0
-60 112 161 -911 912 0
-60 112 161 -911 -912 0
-14 -77 168 913 914 0
-14 -77 168 913 -914 0
-14 -77 168 -913 914 0
-14 -77 168 -913 -914 0
-70 -87 143 915 916 0
-70 -87 143 915 -916 0
-70 -87 143 -915 916 0
-70 -87 143 -915 -916 0
8 -38 46 917 918 0
8 -38 46 917 -918 0
8 -38 46 -917 918 0
8 -38 46 -917 -918 0
-18 -54 176 919 920 0
-18 -54 176 919 -920 0
-18 -54 176 -919 920 0
-18 -54 176 -919 -920 0
-95 125 -139 921 922 0
-95 125 -139 921 -922 0
-95 125 -139 -921 922 0
-95 125 -139 -921 -922 0
-27 66 -166 923 924 0
-27 66 -166 923 -924 0
-27 66 -166 -923 924 0
-27 66 -166 -923 -924 0
101 -116 -117 925 926 0
101 -116 -117 925 -926 0
101 -116 -117 -925 926 0
101 -116 -117 -925 -926 0
16 114 120 927 928 0
16 114 120 927 -928 0
16 114 120 -927 928 0
16 114 120 -927 -928 0
-32 -105 -166 929 930 0
-32 -105 -166 929 -930 0
-32 -105 -166 -929 930 0
-32 -105 -166 -929 -930 0
-50 -112 -131 931 932 0
-50 -112 -131 931 -932 0
-50 -112 -131 -931 932 0
-50 -112 -131 -931 -932 0
4 -131 133 933 934 0
4 -131 133 933 -934 0
4 -131 133 -933 934 0
4 -131 133 -933 -934 0
-112 144 177 935 936 0
-112 144 177 935 -936 0
-112 144 177 -935 936 0
-112 144 177 -935 -936 0
4 -184 937 938 939 0
4 -184 937 938 -939 0
4 -184 937 -938 939 0
4 -184 937 -938 -939 0
4 -184 -937 938 939 0
4 -184 -937 938 -939 0
4 -184 -937 -938 939 0
4 -184 -937 -938 -939 0
-22 -38 940 941 942 0
-22 -38 940 941 -942 0
-22 -38 940 -941 942 0
-22 -38 940 -941 -942 0
-22 -38 -940 941 942 0
-22 -38 -940 941 -942 0
-22 -38 -940 -941 942 0
-22 -38 -940 -941 -942 0
56 60 -136 943 944 0
56 60 -136 943 -944 0
56 60 -136 -943 944 0
56 60 -136 -943 -944 0
-5 178 -191 945 946 0
-5 178 -191 945 -946 0
-5 178 -191 -945 946 0
-5 178 -191 -945 -946 0
80 102 -187 947 948 0
80 102 -187 947 -948 0
80 102 -187 -947 948 0
80 102 -187 -947 -948 0
-63 116 -153 949 950 0
-63 116 -153 949 -950 0
-63 116 -153 -949 950 0
-63 116 -153 -949 -950 0
-100 130 -161 951 952 0
-100 130 -161 951 -952 0
-100 130 -161 -951 952 0
-100 130 -161 -951 -952 0
5 54 -136 953 954 0
5 54 -136 953 -954 0
5 54 -136 -953 954 0
5 54 -136 -953 -954 0
19 122 176 955 956 0
19 122 176 955 -956 0
19 122 176 -955 956 0
19 122 176 -955 -956 0
-2 -46 -81 957 958 0
-2 -46 -81 957 -958 0
-2 -46 -81 -957 958 0
-2 -46 -81 -957 -958 0
85 -86 -100 959 960 0
85 -86 -100 959 -960 0
85 -86 -100 -959 960 0
85 -86 -100 -959 -960 0
50 146 961 962 963 0
50 146 961 962 -963 0
50 146 961 -962 963 0
50 146 961 -962 -963 0
50 146 -961 962 963 0
50 146 -961 962 -963 0
50 146 -961 -962 963 0
50 146 -961 -962 -963 0
33 -72 -124 964 965 0
33 -72 -124 964 -965 0
33 -72 -124 -964 965 0
33 -72 -124 -964 -965 0
-4 14 -169 966 967 0
-4 14 -169 966 -967 0
-4 14 -169 -966 967 0
-4 14 -169 -966 -967 0
-95 117 -142 968 969 0
-95 117 -142 968 -969 0
-95 117 -142 -968 969 0
-95 117 -142 -968 -969 0
17 159 172 970 971 0
17 159 172 970 -971 0
17 159 172 -970 971 0
17 159 172 -970 -971 0
-95 -117 -129 972 973 0
-95 -117 -129 972 -973 0
-95 -117 -129 -972 973 0
-95 -117 -129 -972 -973 0
-139 -141 -188 974 975 0
-139 -141 -188 974 -975 0
-139 -141 -188 -974 975 0
-139 -141 -188 -974 -975 0
33 -186 197 976 977 0
33 -186 197 976 -977 0
33 -186 197 -976 977 0
33 -186 197 -976 -977 0
-103 152 -191 978 979 0
-103 152 -191 978 -979 0
-103 152 -191 -978 979 0
-103 152 -191 -978 -979 0
10 35 101 980 981 0
10 35 101 980 -981 0
10 35 101 -980 981 0
10 35 101 -980 -981 0
-81 -122 -160 982 983 0
-81 -122 -160 982 -983 0
-81 -122 -160 -982 983 0
-81 -122 -160 -982 -983 0
-75 112 -124 984 985 0
-75 112 -124 984 -985 0
-75 112 -124 -984 985 0
-75 112 -124 -984 -985 0
126 170 -196 986 987 0
126 170 -196 986 -987 0
126 170 -196 -986 987 0
126 170 -196 -986 -987 0
5 -22 173 988 989 0
5 -22 173 988 -989 0
5 -22 173 -988 989 0
5 -22 173 -988 -989 0
60 134 170 990 991 0
60 134 170 990 -991 0
60 134 170 -990 991 0
60 134 170 -990 -991 0
-29 -70 126 992 993 0
-29 -70 126 992 -993 0
-29 -70 126 -992 993 0
-29 -70 126 -992 -993 0
109 115 122 994 995 0
109 115 122 994 -995 0
109 115 122 -994 995 0
109 115 122 -994 -995 0
-14 -163 197 996 997 0
-14 -163 197 996 -997 0
-14 -163 197 -996 997 0
-14 -163 197 -996 -997 0
-76 -103 178 998 999 0
-76 -103 178 998 -999 0
-76 -103 178 -998 999 0
-76 -103 178 -998 -999 0
66 -153 -196 1000 1001 0
66 -153 -196 1000 -1001 0
66 -153 -196 -1000 1001 0
66 -153 -196 -1000 -1001 0
-32 60 115 1002 1003 0
-32 60 115 1002 -1003 0
-32 60 115 -1002 1003 0
-32 60 115 -1002 -1003 0
